/*********************************************
    * Lab01 - FCD_FCR
    * Author: Coso
    * Creation Date: Mar, 2019
    *********************************************/
instance_name = "small_instance_13_FCD_FCR";

d = 2;
r = 3;

SCj = [101  95];
Fj = [2809, 1446];
Dk = [46 64 42];

Cjk = [[70 42 75]
 [70 57 59]];
Fjk = [[540 684 709]
 [814 644 525]];
